letting n_nurses=25
letting n_days=7
letting n_shift_types=4
letting max_covers=12
letting t_covers=87
letting covers=[12,9,4,0,6,3,7,0,11,6,5,0,4,8,3,0,2,1,1,0,2,2,1,0,0,0,0,0]
letting prefes=[4,1,4,1,4,4,4,4,1,1,1,1,1,1,1,1,4,4,4,4,1,1,1,1,4,1,4,1,4,4,4,1,3,4,4,4,1,4,1,1,1,4,1,1,3,4,4,4,1,4,1,1,4,4,4,1,1,4,4,1,3,4,4,4,1,4,1,1,1,4,1,1,3,4,4,4,1,4,1,1,1,4,4,1,1,1,1,1,4,4,4,4,1,4,1,1,1,4,1,1,4,4,4,4,1,4,1,1,1,1,1,1,4,4,4,1,4,4,4,4,1,4,1,1,1,4,1,1,4,4,4,4,1,4,1,1,4,4,4,1,4,1,4,1,4,4,4,4,1,1,1,1,1,1,1,1,4,4,4,4,1,1,1,1,4,1,4,1,1,4,4,1,4,4,1,2,1,4,1,1,1,4,1,1,4,4,1,2,1,4,1,1,1,4,4,1,4,4,4,1,4,4,1,4,3,4,3,3,3,4,3,3,4,4,1,4,3,4,3,3,4,4,4,1,4,4,4,4,4,4,4,4,1,1,1,1,1,1,1,1,4,4,4,4,1,1,1,1,4,4,4,4,1,4,4,1,4,4,4,4,1,4,1,1,1,4,1,1,4,4,4,4,1,4,1,1,1,4,4,1,1,1,4,1,4,4,4,2,1,4,1,1,1,4,1,1,4,4,4,2,1,4,1,1,1,1,4,1,4,4,4,4,4,4,4,4,1,4,1,1,1,4,1,1,4,4,4,4,1,4,1,1,4,4,4,4,4,4,4,4,4,4,4,4,3,4,3,3,3,4,3,3,4,4,4,4,3,4,3,3,4,4,4,4,4,4,4,4,3,4,1,4,3,4,3,3,3,4,3,3,3,4,1,4,3,4,3,3,4,4,4,4,4,4,1,1,3,4,4,4,1,4,1,1,1,4,1,1,3,4,4,4,1,4,1,1,4,4,1,1,4,4,1,1,4,4,1,4,1,1,1,1,1,1,1,1,4,4,1,4,1,1,1,1,4,4,1,1,4,4,4,1,4,1,4,2,1,4,1,1,1,4,1,1,4,1,4,2,1,4,1,1,4,4,4,1,4,4,1,1,4,4,4,4,3,4,3,3,3,4,3,3,4,4,4,4,3,4,3,3,4,4,1,1,4,1,4,1,4,4,4,4,1,4,1,1,1,4,1,1,4,4,4,4,1,4,1,1,4,1,4,1,4,4,1,1,4,4,4,4,3,4,3,3,3,4,3,3,4,4,4,4,3,4,3,3,4,4,1,1,4,4,4,4,4,1,1,2,1,4,1,1,1,4,1,1,4,1,1,2,1,4,1,1,4,4,4,4,4,4,4,1,4,1,4,4,1,1,1,1,1,1,1,1,4,1,4,4,1,1,1,1,4,4,4,1,4,4,4,1,3,1,4,4,1,4,1,1,1,4,1,1,3,1,4,4,1,4,1,1,4,4,4,1,4,4,4,1,4,1,4,2,1,4,1,1,1,4,1,1,4,1,4,2,1,4,1,1,4,4,4,1,4,4,4,1,4,4,4,4,1,4,1,1,1,4,1,1,4,4,4,4,1,4,1,1,4,4,4,1]
letting ub =  359
